# Objective value = 7
x0,1_1 0
x0,1_7 0
x0,1_8 0
x0,1_9 0
x0,1_13 0
x0,1_14 0
x0,1_15 0
x0,1_17 0
x0,1_21 0
x0,1_22 0
x0,1_29 0
x0,1_32 0
x0,1_44 0
x0,1_51 0
x0,2_1 0
x0,2_7 1
x0,2_8 0
x0,2_9 0
x0,2_13 0
x0,2_14 0
x0,2_15 0
x0,2_17 0
x0,2_21 0
x0,2_22 0
x0,2_29 0
x0,2_32 0
x0,2_44 0
x0,2_51 0
x0,3_1 0
x0,3_7 0
x0,3_8 0
x0,3_9 0
x0,3_13 0
x0,3_14 0
x0,3_15 0
x0,3_17 0
x0,3_21 1
x0,3_22 0
x0,3_29 0
x0,3_32 0
x0,3_44 0
x0,3_51 0
x0,4_1 0
x0,4_7 0
x0,4_8 0
x0,4_9 0
x0,4_13 0
x0,4_14 0
x0,4_15 0
x0,4_17 0
x0,4_21 0
x0,4_22 0
x0,4_29 1
x0,4_32 0
x0,4_44 0
x0,4_51 0
x0,5_1 0
x0,5_7 0
x0,5_8 0
x0,5_9 0
x0,5_13 0
x0,5_14 0
x0,5_15 0
x0,5_17 0
x0,5_21 0
x0,5_22 0
x0,5_29 0
x0,5_32 0
x0,5_44 0
x0,5_51 0
x0,6_1 0
x0,6_7 0
x0,6_8 0
x0,6_9 0
x0,6_13 0
x0,6_14 0
x0,6_15 0
x0,6_17 0
x0,6_21 0
x0,6_22 0
x0,6_29 0
x0,6_32 0
x0,6_44 0
x0,6_51 1
x0,7_1 0
x0,7_7 0
x0,7_8 0
x0,7_9 0
x0,7_13 0
x0,7_14 0
x0,7_15 0
x0,7_17 0
x0,7_21 0
x0,7_22 0
x0,7_29 0
x0,7_32 0
x0,7_44 0
x0,7_51 0
x0,8_1 0
x0,8_7 0
x0,8_8 0
x0,8_9 0
x0,8_13 0
x0,8_14 0
x0,8_15 0
x0,8_17 0
x0,8_21 0
x0,8_22 0
x0,8_29 0
x0,8_32 0
x0,8_44 0
x0,8_51 0
x0,9_1 0
x0,9_7 0
x0,9_8 0
x0,9_9 0
x0,9_13 0
x0,9_14 0
x0,9_15 0
x0,9_17 0
x0,9_21 0
x0,9_22 0
x0,9_29 0
x0,9_32 0
x0,9_44 0
x0,9_51 0
x0,10_1 0
x0,10_7 0
x0,10_8 0
x0,10_9 0
x0,10_13 0
x0,10_14 0
x0,10_15 0
x0,10_17 0
x0,10_21 0
x0,10_22 0
x0,10_29 0
x0,10_32 0
x0,10_44 0
x0,10_51 0
x0,11_1 0
x0,11_7 0
x0,11_8 0
x0,11_9 0
x0,11_13 0
x0,11_14 0
x0,11_15 0
x0,11_17 0
x0,11_21 0
x0,11_22 0
x0,11_29 0
x0,11_32 0
x0,11_44 0
x0,11_51 0
x0,12_1 0
x0,12_7 0
x0,12_8 0
x0,12_9 0
x0,12_13 0
x0,12_14 0
x0,12_15 0
x0,12_17 0
x0,12_21 0
x0,12_22 0
x0,12_29 0
x0,12_32 0
x0,12_44 0
x0,12_51 0
x0,13_1 0
x0,13_7 0
x0,13_8 0
x0,13_9 0
x0,13_13 0
x0,13_14 0
x0,13_15 0
x0,13_17 0
x0,13_21 0
x0,13_22 0
x0,13_29 0
x0,13_32 0
x0,13_44 0
x0,13_51 0
x0,14_1 0
x0,14_7 0
x0,14_8 0
x0,14_9 0
x0,14_13 0
x0,14_14 0
x0,14_15 0
x0,14_17 0
x0,14_21 0
x0,14_22 0
x0,14_29 0
x0,14_32 0
x0,14_44 0
x0,14_51 0
x1,2_1 1
x1,2_7 0
x1,2_8 0
x1,2_9 0
x1,2_13 0
x1,2_14 0
x1,2_15 0
x1,2_17 0
x1,2_21 0
x1,2_22 0
x1,2_29 0
x1,2_32 0
x1,2_44 0
x1,2_51 0
x1,3_1 0
x1,3_7 0
x1,3_8 0
x1,3_9 0
x1,3_13 0
x1,3_14 0
x1,3_15 1
x1,3_17 0
x1,3_21 0
x1,3_22 0
x1,3_29 0
x1,3_32 0
x1,3_44 0
x1,3_51 0
x1,4_1 0
x1,4_7 0
x1,4_8 0
x1,4_9 0
x1,4_13 0
x1,4_14 0
x1,4_15 0
x1,4_17 0
x1,4_21 0
x1,4_22 0
x1,4_29 0
x1,4_32 0
x1,4_44 0
x1,4_51 0
x1,5_1 0
x1,5_7 0
x1,5_8 0
x1,5_9 0
x1,5_13 0
x1,5_14 0
x1,5_15 0
x1,5_17 0
x1,5_21 0
x1,5_22 0
x1,5_29 0
x1,5_32 1
x1,5_44 0
x1,5_51 0
x1,6_1 0
x1,6_7 0
x1,6_8 0
x1,6_9 0
x1,6_13 0
x1,6_14 0
x1,6_15 0
x1,6_17 0
x1,6_21 0
x1,6_22 0
x1,6_29 0
x1,6_32 0
x1,6_44 0
x1,6_51 0
x1,7_1 0
x1,7_7 0
x1,7_8 0
x1,7_9 0
x1,7_13 0
x1,7_14 0
x1,7_15 0
x1,7_17 0
x1,7_21 0
x1,7_22 0
x1,7_29 0
x1,7_32 0
x1,7_44 0
x1,7_51 0
x1,8_1 0
x1,8_7 0
x1,8_8 0
x1,8_9 0
x1,8_13 0
x1,8_14 0
x1,8_15 0
x1,8_17 0
x1,8_21 0
x1,8_22 0
x1,8_29 0
x1,8_32 0
x1,8_44 0
x1,8_51 0
x1,9_1 0
x1,9_7 0
x1,9_8 0
x1,9_9 0
x1,9_13 0
x1,9_14 0
x1,9_15 0
x1,9_17 0
x1,9_21 0
x1,9_22 0
x1,9_29 0
x1,9_32 0
x1,9_44 0
x1,9_51 0
x1,10_1 0
x1,10_7 0
x1,10_8 0
x1,10_9 0
x1,10_13 0
x1,10_14 0
x1,10_15 0
x1,10_17 0
x1,10_21 0
x1,10_22 0
x1,10_29 0
x1,10_32 0
x1,10_44 0
x1,10_51 0
x1,11_1 0
x1,11_7 0
x1,11_8 0
x1,11_9 0
x1,11_13 0
x1,11_14 0
x1,11_15 0
x1,11_17 0
x1,11_21 0
x1,11_22 0
x1,11_29 0
x1,11_32 0
x1,11_44 0
x1,11_51 0
x1,12_1 0
x1,12_7 0
x1,12_8 0
x1,12_9 0
x1,12_13 0
x1,12_14 0
x1,12_15 0
x1,12_17 0
x1,12_21 0
x1,12_22 0
x1,12_29 0
x1,12_32 0
x1,12_44 0
x1,12_51 0
x1,13_1 0
x1,13_7 0
x1,13_8 0
x1,13_9 0
x1,13_13 0
x1,13_14 0
x1,13_15 0
x1,13_17 0
x1,13_21 0
x1,13_22 0
x1,13_29 0
x1,13_32 0
x1,13_44 0
x1,13_51 0
x1,14_1 0
x1,14_7 0
x1,14_8 0
x1,14_9 0
x1,14_13 0
x1,14_14 0
x1,14_15 0
x1,14_17 0
x1,14_21 0
x1,14_22 0
x1,14_29 0
x1,14_32 0
x1,14_44 0
x1,14_51 0
x2,3_1 0
x2,3_7 0
x2,3_8 0
x2,3_9 0
x2,3_13 0
x2,3_14 1
x2,3_15 0
x2,3_17 0
x2,3_21 0
x2,3_22 0
x2,3_29 0
x2,3_32 0
x2,3_44 0
x2,3_51 0
x2,4_1 0
x2,4_7 0
x2,4_8 0
x2,4_9 0
x2,4_13 0
x2,4_14 0
x2,4_15 0
x2,4_17 0
x2,4_21 0
x2,4_22 1
x2,4_29 0
x2,4_32 0
x2,4_44 0
x2,4_51 0
x2,5_1 0
x2,5_7 0
x2,5_8 0
x2,5_9 0
x2,5_13 0
x2,5_14 0
x2,5_15 0
x2,5_17 0
x2,5_21 0
x2,5_22 0
x2,5_29 0
x2,5_32 0
x2,5_44 0
x2,5_51 0
x2,6_1 0
x2,6_7 0
x2,6_8 0
x2,6_9 0
x2,6_13 0
x2,6_14 0
x2,6_15 0
x2,6_17 0
x2,6_21 0
x2,6_22 0
x2,6_29 0
x2,6_32 0
x2,6_44 1
x2,6_51 0
x2,7_1 0
x2,7_7 0
x2,7_8 0
x2,7_9 0
x2,7_13 0
x2,7_14 0
x2,7_15 0
x2,7_17 0
x2,7_21 0
x2,7_22 0
x2,7_29 0
x2,7_32 0
x2,7_44 0
x2,7_51 0
x2,8_1 0
x2,8_7 0
x2,8_8 0
x2,8_9 0
x2,8_13 0
x2,8_14 0
x2,8_15 0
x2,8_17 0
x2,8_21 0
x2,8_22 0
x2,8_29 0
x2,8_32 0
x2,8_44 0
x2,8_51 0
x2,9_1 0
x2,9_7 0
x2,9_8 0
x2,9_9 0
x2,9_13 0
x2,9_14 0
x2,9_15 0
x2,9_17 0
x2,9_21 0
x2,9_22 0
x2,9_29 0
x2,9_32 0
x2,9_44 0
x2,9_51 0
x2,10_1 0
x2,10_7 0
x2,10_8 0
x2,10_9 0
x2,10_13 0
x2,10_14 0
x2,10_15 0
x2,10_17 0
x2,10_21 0
x2,10_22 0
x2,10_29 0
x2,10_32 0
x2,10_44 0
x2,10_51 0
x2,11_1 0
x2,11_7 0
x2,11_8 0
x2,11_9 0
x2,11_13 0
x2,11_14 0
x2,11_15 0
x2,11_17 0
x2,11_21 0
x2,11_22 0
x2,11_29 0
x2,11_32 0
x2,11_44 0
x2,11_51 0
x2,12_1 0
x2,12_7 0
x2,12_8 0
x2,12_9 0
x2,12_13 0
x2,12_14 0
x2,12_15 0
x2,12_17 0
x2,12_21 0
x2,12_22 0
x2,12_29 0
x2,12_32 0
x2,12_44 0
x2,12_51 0
x2,13_1 0
x2,13_7 0
x2,13_8 0
x2,13_9 0
x2,13_13 0
x2,13_14 0
x2,13_15 0
x2,13_17 0
x2,13_21 0
x2,13_22 0
x2,13_29 0
x2,13_32 0
x2,13_44 0
x2,13_51 0
x2,14_1 0
x2,14_7 0
x2,14_8 0
x2,14_9 0
x2,14_13 0
x2,14_14 0
x2,14_15 0
x2,14_17 0
x2,14_21 0
x2,14_22 0
x2,14_29 0
x2,14_32 0
x2,14_44 0
x2,14_51 0
x3,4_1 0
x3,4_7 0
x3,4_8 1
x3,4_9 0
x3,4_13 0
x3,4_14 0
x3,4_15 0
x3,4_17 0
x3,4_21 0
x3,4_22 0
x3,4_29 0
x3,4_32 0
x3,4_44 0
x3,4_51 0
x3,5_1 0
x3,5_7 0
x3,5_8 0
x3,5_9 0
x3,5_13 0
x3,5_14 0
x3,5_15 0
x3,5_17 1
x3,5_21 0
x3,5_22 0
x3,5_29 0
x3,5_32 0
x3,5_44 0
x3,5_51 0
x3,6_1 0
x3,6_7 0
x3,6_8 0
x3,6_9 0
x3,6_13 0
x3,6_14 0
x3,6_15 0
x3,6_17 0
x3,6_21 0
x3,6_22 0
x3,6_29 0
x3,6_32 0
x3,6_44 0
x3,6_51 0
x3,7_1 0
x3,7_7 0
x3,7_8 0
x3,7_9 0
x3,7_13 0
x3,7_14 0
x3,7_15 0
x3,7_17 0
x3,7_21 0
x3,7_22 0
x3,7_29 0
x3,7_32 0
x3,7_44 0
x3,7_51 0
x3,8_1 0
x3,8_7 0
x3,8_8 0
x3,8_9 0
x3,8_13 0
x3,8_14 0
x3,8_15 0
x3,8_17 0
x3,8_21 0
x3,8_22 0
x3,8_29 0
x3,8_32 0
x3,8_44 0
x3,8_51 0
x3,9_1 0
x3,9_7 0
x3,9_8 0
x3,9_9 0
x3,9_13 0
x3,9_14 0
x3,9_15 0
x3,9_17 0
x3,9_21 0
x3,9_22 0
x3,9_29 0
x3,9_32 0
x3,9_44 0
x3,9_51 0
x3,10_1 0
x3,10_7 0
x3,10_8 0
x3,10_9 0
x3,10_13 0
x3,10_14 0
x3,10_15 0
x3,10_17 0
x3,10_21 0
x3,10_22 0
x3,10_29 0
x3,10_32 0
x3,10_44 0
x3,10_51 0
x3,11_1 0
x3,11_7 0
x3,11_8 0
x3,11_9 0
x3,11_13 0
x3,11_14 0
x3,11_15 0
x3,11_17 0
x3,11_21 0
x3,11_22 0
x3,11_29 0
x3,11_32 0
x3,11_44 0
x3,11_51 0
x3,12_1 0
x3,12_7 0
x3,12_8 0
x3,12_9 0
x3,12_13 0
x3,12_14 0
x3,12_15 0
x3,12_17 0
x3,12_21 0
x3,12_22 0
x3,12_29 0
x3,12_32 0
x3,12_44 0
x3,12_51 0
x3,13_1 0
x3,13_7 0
x3,13_8 0
x3,13_9 0
x3,13_13 0
x3,13_14 0
x3,13_15 0
x3,13_17 0
x3,13_21 0
x3,13_22 0
x3,13_29 0
x3,13_32 0
x3,13_44 0
x3,13_51 0
x3,14_1 0
x3,14_7 0
x3,14_8 0
x3,14_9 0
x3,14_13 0
x3,14_14 0
x3,14_15 0
x3,14_17 0
x3,14_21 0
x3,14_22 0
x3,14_29 0
x3,14_32 0
x3,14_44 0
x3,14_51 0
x4,5_1 0
x4,5_7 0
x4,5_8 0
x4,5_9 1
x4,5_13 0
x4,5_14 0
x4,5_15 0
x4,5_17 0
x4,5_21 0
x4,5_22 0
x4,5_29 0
x4,5_32 0
x4,5_44 0
x4,5_51 0
x4,6_1 0
x4,6_7 0
x4,6_8 0
x4,6_9 0
x4,6_13 0
x4,6_14 0
x4,6_15 0
x4,6_17 0
x4,6_21 0
x4,6_22 0
x4,6_29 0
x4,6_32 0
x4,6_44 0
x4,6_51 0
x4,7_1 0
x4,7_7 0
x4,7_8 0
x4,7_9 0
x4,7_13 0
x4,7_14 0
x4,7_15 0
x4,7_17 0
x4,7_21 0
x4,7_22 0
x4,7_29 0
x4,7_32 0
x4,7_44 0
x4,7_51 0
x4,8_1 0
x4,8_7 0
x4,8_8 0
x4,8_9 0
x4,8_13 0
x4,8_14 0
x4,8_15 0
x4,8_17 0
x4,8_21 0
x4,8_22 0
x4,8_29 0
x4,8_32 0
x4,8_44 0
x4,8_51 0
x4,9_1 0
x4,9_7 0
x4,9_8 0
x4,9_9 0
x4,9_13 0
x4,9_14 0
x4,9_15 0
x4,9_17 0
x4,9_21 0
x4,9_22 0
x4,9_29 0
x4,9_32 0
x4,9_44 0
x4,9_51 0
x4,10_1 0
x4,10_7 0
x4,10_8 0
x4,10_9 0
x4,10_13 0
x4,10_14 0
x4,10_15 0
x4,10_17 0
x4,10_21 0
x4,10_22 0
x4,10_29 0
x4,10_32 0
x4,10_44 0
x4,10_51 0
x4,11_1 0
x4,11_7 0
x4,11_8 0
x4,11_9 0
x4,11_13 0
x4,11_14 0
x4,11_15 0
x4,11_17 0
x4,11_21 0
x4,11_22 0
x4,11_29 0
x4,11_32 0
x4,11_44 0
x4,11_51 0
x4,12_1 0
x4,12_7 0
x4,12_8 0
x4,12_9 0
x4,12_13 0
x4,12_14 0
x4,12_15 0
x4,12_17 0
x4,12_21 0
x4,12_22 0
x4,12_29 0
x4,12_32 0
x4,12_44 0
x4,12_51 0
x4,13_1 0
x4,13_7 0
x4,13_8 0
x4,13_9 0
x4,13_13 0
x4,13_14 0
x4,13_15 0
x4,13_17 0
x4,13_21 0
x4,13_22 0
x4,13_29 0
x4,13_32 0
x4,13_44 0
x4,13_51 0
x4,14_1 0
x4,14_7 0
x4,14_8 0
x4,14_9 0
x4,14_13 0
x4,14_14 0
x4,14_15 0
x4,14_17 0
x4,14_21 0
x4,14_22 0
x4,14_29 0
x4,14_32 0
x4,14_44 0
x4,14_51 0
x5,6_1 0
x5,6_7 0
x5,6_8 0
x5,6_9 0
x5,6_13 1
x5,6_14 0
x5,6_15 0
x5,6_17 0
x5,6_21 0
x5,6_22 0
x5,6_29 0
x5,6_32 0
x5,6_44 0
x5,6_51 0
x5,7_1 0
x5,7_7 0
x5,7_8 0
x5,7_9 0
x5,7_13 0
x5,7_14 0
x5,7_15 0
x5,7_17 0
x5,7_21 0
x5,7_22 0
x5,7_29 0
x5,7_32 0
x5,7_44 0
x5,7_51 0
x5,8_1 0
x5,8_7 0
x5,8_8 0
x5,8_9 0
x5,8_13 0
x5,8_14 0
x5,8_15 0
x5,8_17 0
x5,8_21 0
x5,8_22 0
x5,8_29 0
x5,8_32 0
x5,8_44 0
x5,8_51 0
x5,9_1 0
x5,9_7 0
x5,9_8 0
x5,9_9 0
x5,9_13 0
x5,9_14 0
x5,9_15 0
x5,9_17 0
x5,9_21 0
x5,9_22 0
x5,9_29 0
x5,9_32 0
x5,9_44 0
x5,9_51 0
x5,10_1 0
x5,10_7 0
x5,10_8 0
x5,10_9 0
x5,10_13 0
x5,10_14 0
x5,10_15 0
x5,10_17 0
x5,10_21 0
x5,10_22 0
x5,10_29 0
x5,10_32 0
x5,10_44 0
x5,10_51 0
x5,11_1 0
x5,11_7 0
x5,11_8 0
x5,11_9 0
x5,11_13 0
x5,11_14 0
x5,11_15 0
x5,11_17 0
x5,11_21 0
x5,11_22 0
x5,11_29 0
x5,11_32 0
x5,11_44 0
x5,11_51 0
x5,12_1 0
x5,12_7 0
x5,12_8 0
x5,12_9 0
x5,12_13 0
x5,12_14 0
x5,12_15 0
x5,12_17 0
x5,12_21 0
x5,12_22 0
x5,12_29 0
x5,12_32 0
x5,12_44 0
x5,12_51 0
x5,13_1 0
x5,13_7 0
x5,13_8 0
x5,13_9 0
x5,13_13 0
x5,13_14 0
x5,13_15 0
x5,13_17 0
x5,13_21 0
x5,13_22 0
x5,13_29 0
x5,13_32 0
x5,13_44 0
x5,13_51 0
x5,14_1 0
x5,14_7 0
x5,14_8 0
x5,14_9 0
x5,14_13 0
x5,14_14 0
x5,14_15 0
x5,14_17 0
x5,14_21 0
x5,14_22 0
x5,14_29 0
x5,14_32 0
x5,14_44 0
x5,14_51 0
x6,7_1 0
x6,7_7 0
x6,7_8 0
x6,7_9 0
x6,7_13 0
x6,7_14 0
x6,7_15 0
x6,7_17 0
x6,7_21 0
x6,7_22 0
x6,7_29 0
x6,7_32 0
x6,7_44 0
x6,7_51 0
x6,8_1 0
x6,8_7 0
x6,8_8 0
x6,8_9 0
x6,8_13 0
x6,8_14 0
x6,8_15 0
x6,8_17 0
x6,8_21 0
x6,8_22 0
x6,8_29 0
x6,8_32 0
x6,8_44 0
x6,8_51 0
x6,9_1 0
x6,9_7 0
x6,9_8 0
x6,9_9 0
x6,9_13 0
x6,9_14 0
x6,9_15 0
x6,9_17 0
x6,9_21 0
x6,9_22 0
x6,9_29 0
x6,9_32 0
x6,9_44 0
x6,9_51 0
x6,10_1 0
x6,10_7 0
x6,10_8 0
x6,10_9 0
x6,10_13 0
x6,10_14 0
x6,10_15 0
x6,10_17 0
x6,10_21 0
x6,10_22 0
x6,10_29 0
x6,10_32 0
x6,10_44 0
x6,10_51 0
x6,11_1 0
x6,11_7 0
x6,11_8 0
x6,11_9 0
x6,11_13 0
x6,11_14 0
x6,11_15 0
x6,11_17 0
x6,11_21 0
x6,11_22 0
x6,11_29 0
x6,11_32 0
x6,11_44 0
x6,11_51 0
x6,12_1 0
x6,12_7 0
x6,12_8 0
x6,12_9 0
x6,12_13 0
x6,12_14 0
x6,12_15 0
x6,12_17 0
x6,12_21 0
x6,12_22 0
x6,12_29 0
x6,12_32 0
x6,12_44 0
x6,12_51 0
x6,13_1 0
x6,13_7 0
x6,13_8 0
x6,13_9 0
x6,13_13 0
x6,13_14 0
x6,13_15 0
x6,13_17 0
x6,13_21 0
x6,13_22 0
x6,13_29 0
x6,13_32 0
x6,13_44 0
x6,13_51 0
x6,14_1 0
x6,14_7 0
x6,14_8 0
x6,14_9 0
x6,14_13 0
x6,14_14 0
x6,14_15 0
x6,14_17 0
x6,14_21 0
x6,14_22 0
x6,14_29 0
x6,14_32 0
x6,14_44 0
x6,14_51 0
x7,8_1 0
x7,8_7 0
x7,8_8 0
x7,8_9 0
x7,8_13 0
x7,8_14 0
x7,8_15 0
x7,8_17 0
x7,8_21 0
x7,8_22 0
x7,8_29 0
x7,8_32 0
x7,8_44 0
x7,8_51 0
x7,9_1 0
x7,9_7 0
x7,9_8 0
x7,9_9 0
x7,9_13 0
x7,9_14 0
x7,9_15 0
x7,9_17 0
x7,9_21 0
x7,9_22 0
x7,9_29 0
x7,9_32 0
x7,9_44 0
x7,9_51 0
x7,10_1 0
x7,10_7 0
x7,10_8 0
x7,10_9 0
x7,10_13 0
x7,10_14 0
x7,10_15 0
x7,10_17 0
x7,10_21 0
x7,10_22 0
x7,10_29 0
x7,10_32 0
x7,10_44 0
x7,10_51 0
x7,11_1 0
x7,11_7 0
x7,11_8 0
x7,11_9 0
x7,11_13 0
x7,11_14 0
x7,11_15 0
x7,11_17 0
x7,11_21 0
x7,11_22 0
x7,11_29 0
x7,11_32 0
x7,11_44 0
x7,11_51 0
x7,12_1 0
x7,12_7 0
x7,12_8 0
x7,12_9 0
x7,12_13 0
x7,12_14 0
x7,12_15 0
x7,12_17 0
x7,12_21 0
x7,12_22 0
x7,12_29 0
x7,12_32 0
x7,12_44 0
x7,12_51 0
x7,13_1 0
x7,13_7 0
x7,13_8 0
x7,13_9 0
x7,13_13 0
x7,13_14 0
x7,13_15 0
x7,13_17 0
x7,13_21 0
x7,13_22 0
x7,13_29 0
x7,13_32 0
x7,13_44 0
x7,13_51 0
x7,14_1 0
x7,14_7 0
x7,14_8 0
x7,14_9 0
x7,14_13 0
x7,14_14 0
x7,14_15 0
x7,14_17 0
x7,14_21 0
x7,14_22 0
x7,14_29 0
x7,14_32 0
x7,14_44 0
x7,14_51 0
x8,9_1 0
x8,9_7 0
x8,9_8 0
x8,9_9 0
x8,9_13 0
x8,9_14 0
x8,9_15 0
x8,9_17 0
x8,9_21 0
x8,9_22 0
x8,9_29 0
x8,9_32 0
x8,9_44 0
x8,9_51 0
x8,10_1 0
x8,10_7 0
x8,10_8 0
x8,10_9 0
x8,10_13 0
x8,10_14 0
x8,10_15 0
x8,10_17 0
x8,10_21 0
x8,10_22 0
x8,10_29 0
x8,10_32 0
x8,10_44 0
x8,10_51 0
x8,11_1 0
x8,11_7 0
x8,11_8 0
x8,11_9 0
x8,11_13 0
x8,11_14 0
x8,11_15 0
x8,11_17 0
x8,11_21 0
x8,11_22 0
x8,11_29 0
x8,11_32 0
x8,11_44 0
x8,11_51 0
x8,12_1 0
x8,12_7 0
x8,12_8 0
x8,12_9 0
x8,12_13 0
x8,12_14 0
x8,12_15 0
x8,12_17 0
x8,12_21 0
x8,12_22 0
x8,12_29 0
x8,12_32 0
x8,12_44 0
x8,12_51 0
x8,13_1 0
x8,13_7 0
x8,13_8 0
x8,13_9 0
x8,13_13 0
x8,13_14 0
x8,13_15 0
x8,13_17 0
x8,13_21 0
x8,13_22 0
x8,13_29 0
x8,13_32 0
x8,13_44 0
x8,13_51 0
x8,14_1 0
x8,14_7 0
x8,14_8 0
x8,14_9 0
x8,14_13 0
x8,14_14 0
x8,14_15 0
x8,14_17 0
x8,14_21 0
x8,14_22 0
x8,14_29 0
x8,14_32 0
x8,14_44 0
x8,14_51 0
x9,10_1 0
x9,10_7 0
x9,10_8 0
x9,10_9 0
x9,10_13 0
x9,10_14 0
x9,10_15 0
x9,10_17 0
x9,10_21 0
x9,10_22 0
x9,10_29 0
x9,10_32 0
x9,10_44 0
x9,10_51 0
x9,11_1 0
x9,11_7 0
x9,11_8 0
x9,11_9 0
x9,11_13 0
x9,11_14 0
x9,11_15 0
x9,11_17 0
x9,11_21 0
x9,11_22 0
x9,11_29 0
x9,11_32 0
x9,11_44 0
x9,11_51 0
x9,12_1 0
x9,12_7 0
x9,12_8 0
x9,12_9 0
x9,12_13 0
x9,12_14 0
x9,12_15 0
x9,12_17 0
x9,12_21 0
x9,12_22 0
x9,12_29 0
x9,12_32 0
x9,12_44 0
x9,12_51 0
x9,13_1 0
x9,13_7 0
x9,13_8 0
x9,13_9 0
x9,13_13 0
x9,13_14 0
x9,13_15 0
x9,13_17 0
x9,13_21 0
x9,13_22 0
x9,13_29 0
x9,13_32 0
x9,13_44 0
x9,13_51 0
x9,14_1 0
x9,14_7 0
x9,14_8 0
x9,14_9 0
x9,14_13 0
x9,14_14 0
x9,14_15 0
x9,14_17 0
x9,14_21 0
x9,14_22 0
x9,14_29 0
x9,14_32 0
x9,14_44 0
x9,14_51 0
x10,11_1 0
x10,11_7 0
x10,11_8 0
x10,11_9 0
x10,11_13 0
x10,11_14 0
x10,11_15 0
x10,11_17 0
x10,11_21 0
x10,11_22 0
x10,11_29 0
x10,11_32 0
x10,11_44 0
x10,11_51 0
x10,12_1 0
x10,12_7 0
x10,12_8 0
x10,12_9 0
x10,12_13 0
x10,12_14 0
x10,12_15 0
x10,12_17 0
x10,12_21 0
x10,12_22 0
x10,12_29 0
x10,12_32 0
x10,12_44 0
x10,12_51 0
x10,13_1 0
x10,13_7 0
x10,13_8 0
x10,13_9 0
x10,13_13 0
x10,13_14 0
x10,13_15 0
x10,13_17 0
x10,13_21 0
x10,13_22 0
x10,13_29 0
x10,13_32 0
x10,13_44 0
x10,13_51 0
x10,14_1 0
x10,14_7 0
x10,14_8 0
x10,14_9 0
x10,14_13 0
x10,14_14 0
x10,14_15 0
x10,14_17 0
x10,14_21 0
x10,14_22 0
x10,14_29 0
x10,14_32 0
x10,14_44 0
x10,14_51 0
x11,12_1 0
x11,12_7 0
x11,12_8 0
x11,12_9 0
x11,12_13 0
x11,12_14 0
x11,12_15 0
x11,12_17 0
x11,12_21 0
x11,12_22 0
x11,12_29 0
x11,12_32 0
x11,12_44 0
x11,12_51 0
x11,13_1 0
x11,13_7 0
x11,13_8 0
x11,13_9 0
x11,13_13 0
x11,13_14 0
x11,13_15 0
x11,13_17 0
x11,13_21 0
x11,13_22 0
x11,13_29 0
x11,13_32 0
x11,13_44 0
x11,13_51 0
x11,14_1 0
x11,14_7 0
x11,14_8 0
x11,14_9 0
x11,14_13 0
x11,14_14 0
x11,14_15 0
x11,14_17 0
x11,14_21 0
x11,14_22 0
x11,14_29 0
x11,14_32 0
x11,14_44 0
x11,14_51 0
x12,13_1 0
x12,13_7 0
x12,13_8 0
x12,13_9 0
x12,13_13 0
x12,13_14 0
x12,13_15 0
x12,13_17 0
x12,13_21 0
x12,13_22 0
x12,13_29 0
x12,13_32 0
x12,13_44 0
x12,13_51 0
x12,14_1 0
x12,14_7 0
x12,14_8 0
x12,14_9 0
x12,14_13 0
x12,14_14 0
x12,14_15 0
x12,14_17 0
x12,14_21 0
x12,14_22 0
x12,14_29 0
x12,14_32 0
x12,14_44 0
x12,14_51 0
x13,14_1 0
x13,14_7 0
x13,14_8 0
x13,14_9 0
x13,14_13 0
x13,14_14 0
x13,14_15 0
x13,14_17 0
x13,14_21 0
x13,14_22 0
x13,14_29 0
x13,14_32 0
x13,14_44 0
x13,14_51 0
z0 1
z1 1
z2 1
z3 1
z4 1
z5 1
z6 1
z7 0
z8 0
z9 0
z10 0
z11 0
z12 0
z13 0
z14 0
p0 0
p1 6
p2 7
p3 21
p4 29
p5 38
p6 51
p7 52
p8 53
p9 54
p10 55
p11 56
p12 57
p13 58
p14 59
